BEGIN IONS
PEPMASS=518.2959725759999
CHARGE=1+
FEATURE_ID=42
INCHIKEY=AAABMNXUOFPYQK
MOLECULAR_FORMULA=C25H43NO10
IONMODE=POSITIVE
EXACTMASS=517.288696576
NAME=AAABMNXUOFPYQK
SMILES=C=C1CC(OC)(C(O)C(O)=NC2OCOC3C2OC(CC(CO)OC)C(C)(C)C3OC)OC(C)C1C
INCHI=InChI=1S/C25H43NO10/c1-13-10-25(32-8,36-15(3)14(13)2)20(28)22(29)26-23-19-18(33-12-34-23)21(31-7)24(4,5)17(35-19)9-16(11-27)30-6/h14-21,23,27-28H,1,9-12H2,2-8H3,(H,26,29)
LIBRARYQUALITY=In Silico Fragmented CFM-ID - Intensities = mean(e0,e1,e2)
SCANS=1
25.00727645 0.16585692240333333
27.02292652 0.13786164717333332
29.03857658 0.07470571192
31.01784114 0.06053183836083333
33.0334912 0.13589861471333334
39.02292652 0.5305281222966667
41.00219107 0.05093926733366667
41.03857658 0.21181061911333332
43.01784114 0.052540044598333335
44.0130901 1.1435055558033334
45.0334912 0.43113565728
49.00727645 0.054581900969500004
51.02292652 1.1908897983666666
53.03857658 2.555688419
55.01784114 0.13133120852466665
55.05422664 3.0427383183333334
57.0334912 0.2888964899
57.06987671 0.5826469960999999
59.01275576 0.025470078976666668
59.04914126 0.4090694692433334
59.08552677 0.4032125236
61.02840582 0.14845934454333334
63.02292652 0.074186123662
65.03857658 0.4284581870466666
67.01784114 0.015226057639999999
67.05422664 1.6135661504333332
69.0334912 0.12352328962333332
69.06987671 0.8422683874
71.01275576 0.33001886383333334
71.04914126 0.8643344503999999
71.08552677 0.36100518214
72.00800472 0.059383998083333334
73.02840582 0.43729788449999996
73.06479133 0.17974505707666666
73.10117684 0.14010685762666666
74.02365479 0.26861661511999996
75.04405588 1.8783284989
75.08044139 0.005962782893666667
77.03857658 0.11807388671899999
77.05970595 1.2137515813333335
79.05422664 1.6731626439333336
81.0334912 0.23245842761666666
81.06987671 2.9775190780000003
83.01275576 0.06988068318533333
83.04914126 0.20419466822
83.08552677 0.6587120481000001
85.02840582 0.13167992736666667
85.06479133 0.10649125874999998
85.10117684 0.3746319062666667
87.04405588 0.23911943306666664
87.08044139 0.12916972319
87.1168269 0.36096436442
89.05970595 0.6615723880666666
91.05422664 0.20949841811666667
91.07535601 0.28929192993333336
93.06987671 1.5575496104666666
95.04914126 0.17908374447
95.08552677 1.9829173466666667
97.02840582 0.23818814583333334
97.06479133 0.6264737796333334
97.10117684 1.1641367072333333
99.04405588 1.1712360224000002
99.08044139 0.5198601559666667
99.1168269 0.41290527056666665
100.0393049 0.21086825310433333
101.0597059 1.0684719594666667
101.0960915 0.08105586761333333
101.13247700000001 0.29392254636666665
103.075356 0.37461368480000007
103.11174150000001 0.059258403816666666
105.0910061 0.18622584762666664
109.0647913 0.19539624557333335
111.08044140000001 0.9271500890000001
113.0960915 1.1557447225
115.075356 0.4780588503733334
115.11174150000001 0.26279749284333337
116.0342195 0.43074808543333337
117.1273916 0.06726726105666667
123.08044140000001 0.11797015873666666
125.05970590000001 0.026956747942999997
125.0960915 0.13829401111333334
139.075356 0.26276504074333334
141.0910061 1.4832010519333334
142.0498695 0.14500318483666666
143.1066561 1.4338749266666666
144.0655196 0.32467227719666664
145.1223062 0.6142480862
146.0811697 0.062549121444
147.1379563 0.4088197817666666
148.0968197 0.05852010613633333
153.0910061 0.07231820506666667
155.1066561 0.41028031653999997
157.1223062 0.6005621914033333
159.10157080000002 0.0375844785679
160.0604342 0.05545150802666667
167.1066561 0.21350853152433333
169.0859207 0.055499336724399995
169.1223062 0.252181276867
171.1379563 0.09794954053533333
183.10157080000002 0.17500235266
184.0968197 0.12174387659333334
185.08083530000002 0.1268520687337333
185.1172208 1.5069548788666667
186.1124698 0.27821777892
187.0964854 0.15566976533666668
187.1328709 1.7308428515666667
188.1281199 0.056785450018000005
189.148521 0.8738397309666667
190.1437699 0.047657587039000006
191.164171 0.14740089804
195.10157080000002 0.13228434069199999
199.0964854 0.03548837463666666
200.0917343 0.08927060896666666
201.1121354 0.19649425556333333
202.1073844 0.8231459008733334
203.1277855 0.6834673928666666
204.1230345 0.47311739680180004
205.1434356 0.4872430429666666
207.1590856 0.04421531507333334
212.1281199 1.6219524289333334
213.11213540000003 0.7571345148666667
214.1073844 1.0752982263333333
215.1277855 0.3756543658
216.12303450000002 0.7504232447666667
217.1434356 0.08772093111333334
228.12303450000002 0.33146854743333337
229.1434356 0.25278003574
230.1386845 2.6339642816666666
231.15908560000003 0.25163863833333333
234.16998470000001 0.07453837789666666
242.10229900000002 0.11285927654666666
244.1179491 0.09977797450999999
247.1540003 0.07815438013333333
256.1179491 0.2322495745666667
256.15433459999997 0.2988120229
258.1335992 0.2581387150966667
258.1699847 1.4257784928333335
260.1856347 0.05861434033333334
272.1492492 0.6021781405333333
274.1648993 0.9010974705
276.1805494 0.06227103823333333
284.1492492 0.13988602470666667
286.1648993 0.9094633855
287.14891489999997 0.21556114379666666
288.1441638 0.10660612405333332
288.1805494 0.5549322871666666
289.16456489999996 0.5283380583933334
290.1598139 0.3338610150666666
300.1441638 0.5556946452666667
302.1598139 0.7098387066999999
304.17546400000003 7.535139072100001
306.191114 0.5545628174866667
312.1441638 0.05695758179899999
314.1598139 0.3355106215366667
316.17546400000003 0.08678997573433334
318.191114 0.06637402466766666
320.20676410000004 0.06637402466766666
328.13907850000004 0.15132822607666668
330.15472850000003 0.24160663139333335
332.17037860000005 0.71890055848
334.1860287 0.09188812146666665
336.2016787 0.09051330151333332
356.17037860000005 0.04403184081666667
358.1860287 0.13837901666333333
360.2016787 0.12075012797399999
362.1809433 0.15071773686
362.2173288 0.11752417203333333
364.1965933 0.19541204726666664
364.2329788 0.11752417203333333
366.2122434 0.05693097458533333
372.1652932 0.09670605524999999
374.1809433 0.15577450339333335
398.2173288 0.03499446696333333
400.1965933 0.061545979246333336
400.2329788 0.13215405246666667
402.2122434 0.187599269978
402.24862889999997 0.11181589215333333
404.2278935 0.07796298525893333
404.264279 0.0951661296
406.279929 0.0951661296
414.2122434 0.10682607769000001
416.191508 0.16869141485000003
416.2278935 0.22882689103
418.207158 0.14346490233
420.2228081 0.07741553706966668
422.23845819999997 0.06889966923466667
424.25410819999996 0.048715861956
428.22789349999994 0.6435922745599999
430.2435435 0.5323980877
432.2228081 0.06610598215666667
432.25919360000006 0.07678884348333333
434.2748437 0.08629482559000001
436.21772269999997 0.10643116604666665
442.2435435 0.36878460859999995
444.2228081 0.06492220084666667
444.25919360000006 0.5061149563333333
462.2333728 0.09609774565
468.25919360000006 0.6137814187333334
470.23845819999997 3.3439581690743334
470.2748437 0.14712088447333335
472.25410819999996 0.11517122374866667
472.2904937 0.11850858432666667
474.26975830000003 0.28591386893666665
474.30614380000003 0.10855568909666669
486.26975830000003 1.2527514281333334
488.24902280000003 0.20991106629519998
488.28540830000003 0.9534461597
490.26467289999994 0.5918326298
490.3010584 0.15858149746666664
492.28032300000007 0.19952264256666666
500.28540830000003 2.220145904
502.26467289999994 0.7374105367666667
518.295973 2.5791671080814997
END IONS
BEGIN IONS
PEPMASS=417.26355025199996
CHARGE=1+
INCHIKEY=AAACJXBPRRVSAV
MOLECULAR_FORMULA=C25H36O5
IONMODE=POSITIVE
EXACTMASS=416.25627425199997
NAME=AAACJXBPRRVSAV
SMILES=C=C1C2CCC3(O)C4(C)CCCC(C)(C(=O)O)C4CCC3(C2)C1OC(=O)C=C(C)C
INCHI=InChI=1S/C25H36O5/c1-15(2)13-19(26)30-20-16(3)17-7-12-25(29)23(5)10-6-9-22(4,21(27)28)18(23)8-11-24(20,25)14-17/h13,17-18,20,29H,3,6-12,14H2,1-2,4-5H3,(H,27,28)
LIBRARYQUALITY=In Silico Fragmented CFM-ID - Intensities = mean(e0,e1,e2)
SCANS=1
25.00727645 0.062498411878999995
27.02292652 0.0271829302615
39.02292652 11.008162521666668
41.00219107 0.12725096542666667
41.03857658 7.8158679483333335
43.01784114 0.33201064296666666
43.05422664 2.1416507283333335
45.06987671 0.9642463872999999
53.00219107 0.10401574896999999
55.05422664 3.943923975
57.0334912 0.08926769657
57.06987671 0.3502280890666667
59.04914126 0.024838901072333334
59.08552677 0.09775069854
65.03857658 1.3275425106666667
67.01784114 0.2913040312333333
67.05422664 0.14589097862333333
68.99710569 0.07229150204
69.06987671 0.19150091989533335
71.01275576 0.10686933466
71.08552677 0.07209138254666668
73.02840582 0.14529201613666667
75.04405588 0.03465282944
77.05970595 0.039928025602
81.0334912 0.7873102639000001
81.06987671 0.11564338298333333
83.04914126 5.4465629773333335
85.02840582 0.06489739580666666
85.06479133 0.2166114926
87.04405588 0.17872751755000002
87.08044139 0.18971653354999998
89.05970595 0.09874419319
89.09609146 0.11544749146333333
91.07535601 0.06882497958
93.0334912 0.010395231338666667
95.04914126 0.09385058844666666
99.04405588 0.03756133674333333
101.0597059 0.45613236263333334
105.0698767 0.07116359012326667
107.0855268 0.09040373091466665
109.0284058 0.08297972056000001
109.10117679999999 0.45895626209
111.04405590000002 0.14183118167666667
113.05970590000001 0.08805870861666666
115.075356 0.13866908569666667
117.0910061 0.09271299756000001
119.0855268 0.03699785085973333
119.1066561 0.08297972056000001
123.1168269 0.7250060866
133.1011768 0.14794404022666666
135.0804414 0.18865546417
137.0960915 0.2392359851466667
137.132477 0.37861698258000004
139.075356 0.07289610246333333
141.1273916 0.11467913903666667
147.0804414 0.20441007252166665
149.0960915 0.20187445053
151.075356 0.44670575676666663
151.1117415 0.14996887551000002
153.0910061 0.45345337339999997
155.1066561 0.4468987944666667
155.1430416 0.11138102657366666
157.1223062 0.11803718238333333
159.1379563 0.12736653282666666
161.0960915 0.26065595925
163.075356 0.2244223656166667
163.1117415 0.27288956296666667
165.0910061 0.2549370659333334
165.1273916 0.022319416736666667
167.1066561 0.5099325083333334
169.1223062 0.7236029436
169.1586917 0.11707771984
171.1379563 0.09997847314000001
173.1536063 0.11304133902333334
177.0910061 0.2625849359333333
179.1066561 0.46528295103333334
181.1223062 0.5907981932666667
183.1379563 0.2758775906
185.1536063 0.09875350906333331
187.1692564 0.14550721612
199.1117415 0.056681218585333336
201.1273916 0.10442880285333334
213.0910061 0.07227238115666668
215.10665609999998 0.08217775064666667
217.1223062 0.094263393431
221.1536063 0.055489780989999994
223.16925640000002 0.022893808874333333
227.14304159999998 0.101169129476
229.1586917 0.23421168814666662
231.10157080000002 0.06789957177066668
231.1743418 0.15860797576666666
233.1172208 0.21344582952666669
233.1899918 0.11798584846
235.13287090000003 0.12057474337333333
235.20564190000002 0.069810133262
239.164171 0.05014082670566666
241.17982110000003 0.05014082670566666
245.1536063 0.11254150258899999
247.13287090000003 0.17648251922
247.16925640000002 0.083144647566
249.148521 0.1530763643
257.15360630000004 0.66620029506
259.1328709 0.12587003712
259.16925640000005 0.5092838091333333
259.20564190000005 0.4108315998866667
261.148521 0.17206944022
261.1849065 0.387424432
263.164171 0.10346888185666665
263.2005565 0.36906973366333334
269.18999180000003 0.33692725776666665
271.2056419 1.7144845600333334
273.148521 0.31518009927
273.221292 0.2466934325333333
275.164171 0.27921479792666665
277.1798211 0.1680759398
279.1954711 0.12861494909333335
281.15360630000004 0.03964386787
281.2111212 0.08621078210666666
283.1692564 0.40584737572
285.1849065 0.51087713682
287.2005565 2.7513264033000002
289.2162066 1.1888344974666667
291.2318567 0.20204262143333332
297.1849065 0.76290921
299.164171 0.3883866000666667
299.2005565 2.2730934424
301.1798211 0.4230263192333333
303.1954711 0.21043246255333337
305.2111212 0.2309030085
307.2267713 0.06893771597
309.1849065 0.07616622595666667
311.164171 0.39586363751666664
311.2005565 0.11858224843
313.1798211 0.468517549
313.2162066 0.027511539516666666
315.1954711 0.7434237985
317.2111212 5.934792448333333
321.2424213 0.061456716093333336
325.2162066 0.08303499020333333
327.1954711 0.038530868073333335
329.1747357 0.21950292914333333
329.2111212 0.16113910033333334
331.1903858 0.04362803618666667
331.2267713 0.22399161302333334
333.2060358 0.08984033601666667
335.22168589999995 1.8175336176333332
341.2111212 0.14663091680999998
343.2267713 0.15052464898333331
345.2424213 0.1964732272233333
347.25807139999995 0.11549299256666667
351.2318567 0.41729989903333325
353.2475067 2.2708502174333334
355.1903858 0.3747357785
355.2631568 0.5647044644
357.2060358 0.25639213429999996
359.22168589999995 0.28399375889666667
361.20095039999995 0.20940305442333332
369.2424213 0.2591783791433333
371.25807139999995 1.8212455027999999
373.20095039999995 0.3868653973333333
373.27372149999997 0.36681083510666673
375.21660049999997 0.6369200798
377.2322506 0.24816744473333333
381.2424213 2.281557015266667
383.22168589999995 0.19143155899666667
387.21660049999997 0.42271547051333336
389.2322506 0.35289545413333334
391.2479006 0.31106486449
399.25298599999996 6.794647934633333
401.2322506 0.7781871306333333
417.2635507 4.738747341961667
END IONS
